\ENCODING=ISO-8859-1
\Problem name: ilog.cplex

Minimize
 obj1: 778 x_{1,2} + 94 x_{1,3} + 288 x_{1,4} + 948 x_{1,8} + 740 x_{2,4}
       + 902 x_{2,9} + 270 x_{3,6} + 578 x_{3,7} + 772 x_{4,5} + 751 x_{4,7}
       + 395 x_{4,9} + 893 x_{5,9} + 640 x_{5,10} + 46 x_{6,7} + 152 x_{6,8}
       + 714 x_{6,9} + 847 x_{6,10} + 765 x_{7,8} + 408 x_{7,9} + 67 x_{7,10}
       + 931 x_{8,9} + 716 x_{9,10} + 778 x_{2,1} + 94 x_{3,1} + 288 x_{4,1}
       + 948 x_{8,1} + 740 x_{4,2} + 902 x_{9,2} + 270 x_{6,3} + 578 x_{7,3}
       + 772 x_{5,4} + 751 x_{7,4} + 395 x_{9,4} + 893 x_{9,5} + 640 x_{10,5}
       + 46 x_{7,6} + 152 x_{8,6} + 714 x_{9,6} + 847 x_{10,6} + 765 x_{8,7}
       + 408 x_{9,7} + 67 x_{10,7} + 931 x_{9,8} + 716 x_{10,9}
Subject To
 c1:   y0 + y1 + y2 + y3 + y4 + y5 + y6 + y7 + y8 + y9 + y10  = 6
 c2:   x_{0,1} + x_{0,2} + x_{0,3} + x_{0,4} + x_{0,5} + x_{0,6} + x_{0,7}
       + x_{0,8} + x_{0,9} + x_{0,10} + x_{1,2} + x_{1,3} + x_{1,4} + x_{1,8}
       + x_{2,4} + x_{2,9} + x_{3,6} + x_{3,7} + x_{4,5} + x_{4,7} + x_{4,9}
       + x_{5,9} + x_{5,10} + x_{6,7} + x_{6,8} + x_{6,9} + x_{6,10} + x_{7,8}
       + x_{7,9} + x_{7,10} + x_{8,9} + x_{9,10} + x_{1,0} + x_{2,0} + x_{3,0}
       + x_{4,0} + x_{5,0} + x_{6,0} + x_{7,0} + x_{8,0} + x_{9,0} + x_{10,0}
       + x_{2,1} + x_{3,1} + x_{4,1} + x_{8,1} + x_{4,2} + x_{9,2} + x_{6,3}
       + x_{7,3} + x_{5,4} + x_{7,4} + x_{9,4} + x_{9,5} + x_{10,5} + x_{7,6}
       + x_{8,6} + x_{9,6} + x_{10,6} + x_{8,7} + x_{9,7} + x_{10,7} + x_{9,8}
       + x_{10,9}  = 5
 c3:   x_{0,1} + x_{0,2} + x_{0,3} + x_{0,4} + x_{0,5} + x_{0,6} + x_{0,7}
       + x_{0,8} + x_{0,9} + x_{0,10}  = 1
 c4:   x_{0,1} + x_{2,1} + x_{3,1} + x_{4,1} + x_{8,1} - y1  = 0
 c5:   x_{0,2} + x_{1,2} + x_{4,2} + x_{9,2} - y2  = 0
 c6:   x_{0,3} + x_{1,3} + x_{6,3} + x_{7,3} - y3  = 0
 c7:   x_{0,4} + x_{1,4} + x_{2,4} + x_{5,4} + x_{7,4} + x_{9,4} - y4  = 0
 c8:   x_{0,5} + x_{4,5} + x_{9,5} + x_{10,5} - y5  = 0
 c9:   x_{0,6} + x_{3,6} + x_{7,6} + x_{8,6} + x_{9,6} + x_{10,6} - y6  = 0
 c10:  x_{0,7} + x_{3,7} + x_{4,7} + x_{6,7} + x_{8,7} + x_{9,7} + x_{10,7}
       - y7  = 0
 c11:  x_{0,8} + x_{1,8} + x_{6,8} + x_{7,8} + x_{9,8} - y8  = 0
 c12:  x_{0,9} + x_{2,9} + x_{4,9} + x_{5,9} + x_{6,9} + x_{7,9} + x_{8,9}
       + x_{10,9} - y9  = 0
 c13:  x_{0,10} + x_{5,10} + x_{6,10} + x_{7,10} + x_{9,10} - y10  = 0
 c14:  - 2 x_{0,1} - 2 x_{1,0} + y0 + y1 >= 0
 c15:  - 2 x_{0,2} - 2 x_{2,0} + y0 + y2 >= 0
 c16:  - 2 x_{0,3} - 2 x_{3,0} + y0 + y3 >= 0
 c17:  - 2 x_{0,4} - 2 x_{4,0} + y0 + y4 >= 0
 c18:  - 2 x_{0,5} - 2 x_{5,0} + y0 + y5 >= 0
 c19:  - 2 x_{0,6} - 2 x_{6,0} + y0 + y6 >= 0
 c20:  - 2 x_{0,7} - 2 x_{7,0} + y0 + y7 >= 0
 c21:  - 2 x_{0,8} - 2 x_{8,0} + y0 + y8 >= 0
 c22:  - 2 x_{0,9} - 2 x_{9,0} + y0 + y9 >= 0
 c23:  - 2 x_{0,10} - 2 x_{10,0} + y0 + y10 >= 0
 c24:  - 2 x_{1,2} - 2 x_{2,1} + y1 + y2 >= 0
 c25:  - 2 x_{1,3} - 2 x_{3,1} + y1 + y3 >= 0
 c26:  - 2 x_{1,4} - 2 x_{4,1} + y1 + y4 >= 0
 c27:  - 2 x_{1,8} - 2 x_{8,1} + y1 + y8 >= 0
 c28:  - 2 x_{2,4} - 2 x_{4,2} + y2 + y4 >= 0
 c29:  - 2 x_{2,9} - 2 x_{9,2} + y2 + y9 >= 0
 c30:  - 2 x_{3,6} - 2 x_{6,3} + y3 + y6 >= 0
 c31:  - 2 x_{3,7} - 2 x_{7,3} + y3 + y7 >= 0
 c32:  - 2 x_{4,5} - 2 x_{5,4} + y4 + y5 >= 0
 c33:  - 2 x_{4,7} - 2 x_{7,4} + y4 + y7 >= 0
 c34:  - 2 x_{4,9} - 2 x_{9,4} + y4 + y9 >= 0
 c35:  - 2 x_{5,9} - 2 x_{9,5} + y5 + y9 >= 0
 c36:  - 2 x_{5,10} - 2 x_{10,5} + y5 + y10 >= 0
 c37:  - 2 x_{6,7} - 2 x_{7,6} + y6 + y7 >= 0
 c38:  - 2 x_{6,8} - 2 x_{8,6} + y6 + y8 >= 0
 c39:  - 2 x_{6,9} - 2 x_{9,6} + y6 + y9 >= 0
 c40:  - 2 x_{6,10} - 2 x_{10,6} + y6 + y10 >= 0
 c41:  - 2 x_{7,8} - 2 x_{8,7} + y7 + y8 >= 0
 c42:  - 2 x_{7,9} - 2 x_{9,7} + y7 + y9 >= 0
 c43:  - 2 x_{7,10} - 2 x_{10,7} + y7 + y10 >= 0
 c44:  - 2 x_{8,9} - 2 x_{9,8} + y8 + y9 >= 0
 c45:  - 2 x_{9,10} - 2 x_{10,9} + y9 + y10 >= 0
 c46:  f_{0,1} + f_{0,2} + f_{0,3} + f_{0,4} + f_{0,5} + f_{0,6} + f_{0,7}
       + f_{0,8} + f_{0,9} + f_{0,10}  = 5
 c47:  - y1 + f_{0,1} - f_{1,0} + f_{2,1} - f_{1,2} + f_{3,1} - f_{1,3}
       + f_{4,1} - f_{1,4} + f_{8,1} - f_{1,8}  = 0
 c48:  - y2 + f_{0,2} - f_{2,1} + f_{1,2} - f_{2,0} + f_{4,2} - f_{2,4}
       + f_{9,2} - f_{2,9}  = 0
 c49:  - y3 + f_{0,3} - f_{3,1} + f_{1,3} - f_{3,0} + f_{6,3} - f_{3,6}
       + f_{7,3} - f_{3,7}  = 0
 c50:  - y4 + f_{0,4} - f_{4,1} + f_{1,4} - f_{4,2} + f_{2,4} - f_{4,0}
       + f_{5,4} - f_{4,5} + f_{7,4} - f_{4,7} + f_{9,4} - f_{4,9}  = 0
 c51:  - y5 + f_{0,5} - f_{5,4} + f_{4,5} - f_{5,0} + f_{9,5} - f_{5,9}
       + f_{10,5} - f_{5,10}  = 0
 c52:  - y6 + f_{0,6} - f_{6,3} + f_{3,6} - f_{6,0} + f_{7,6} - f_{6,7}
       + f_{8,6} - f_{6,8} + f_{9,6} - f_{6,9} + f_{10,6} - f_{6,10}  = 0
 c53:  - y7 + f_{0,7} - f_{7,3} + f_{3,7} - f_{7,4} + f_{4,7} - f_{7,6}
       + f_{6,7} - f_{7,0} + f_{8,7} - f_{7,8} + f_{9,7} - f_{7,9} + f_{10,7}
       - f_{7,10}  = 0
 c54:  - y8 + f_{0,8} - f_{8,1} + f_{1,8} - f_{8,6} + f_{6,8} - f_{8,7}
       + f_{7,8} - f_{8,0} + f_{9,8} - f_{8,9}  = 0
 c55:  - y9 + f_{0,9} - f_{9,2} + f_{2,9} - f_{9,4} + f_{4,9} - f_{9,5}
       + f_{5,9} - f_{9,6} + f_{6,9} - f_{9,7} + f_{7,9} - f_{9,8} + f_{8,9}
       - f_{9,0} + f_{10,9} - f_{9,10}  = 0
 c56:  - y10 + f_{0,10} - f_{10,5} + f_{5,10} - f_{10,6} + f_{6,10} - f_{10,7}
       + f_{7,10} - f_{10,9} + f_{9,10} - f_{10,0}  = 0
 c57:  - 5 x_{0,1} + f_{0,1} <= 0
 c58:  - 5 x_{1,0} + f_{1,0} <= 0
 c59:  - 5 x_{0,2} + f_{0,2} <= 0
 c60:  - 5 x_{2,0} + f_{2,0} <= 0
 c61:  - 5 x_{0,3} + f_{0,3} <= 0
 c62:  - 5 x_{3,0} + f_{3,0} <= 0
 c63:  - 5 x_{0,4} + f_{0,4} <= 0
 c64:  - 5 x_{4,0} + f_{4,0} <= 0
 c65:  - 5 x_{0,5} + f_{0,5} <= 0
 c66:  - 5 x_{5,0} + f_{5,0} <= 0
 c67:  - 5 x_{0,6} + f_{0,6} <= 0
 c68:  - 5 x_{6,0} + f_{6,0} <= 0
 c69:  - 5 x_{0,7} + f_{0,7} <= 0
 c70:  - 5 x_{7,0} + f_{7,0} <= 0
 c71:  - 5 x_{0,8} + f_{0,8} <= 0
 c72:  - 5 x_{8,0} + f_{8,0} <= 0
 c73:  - 5 x_{0,9} + f_{0,9} <= 0
 c74:  - 5 x_{9,0} + f_{9,0} <= 0
 c75:  - 5 x_{0,10} + f_{0,10} <= 0
 c76:  - 5 x_{10,0} + f_{10,0} <= 0
 c77:  - 5 x_{1,2} + f_{1,2} <= 0
 c78:  - 5 x_{2,1} + f_{2,1} <= 0
 c79:  - 5 x_{1,3} + f_{1,3} <= 0
 c80:  - 5 x_{3,1} + f_{3,1} <= 0
 c81:  - 5 x_{1,4} + f_{1,4} <= 0
 c82:  - 5 x_{4,1} + f_{4,1} <= 0
 c83:  - 5 x_{1,8} + f_{1,8} <= 0
 c84:  - 5 x_{8,1} + f_{8,1} <= 0
 c85:  - 5 x_{2,4} + f_{2,4} <= 0
 c86:  - 5 x_{4,2} + f_{4,2} <= 0
 c87:  - 5 x_{2,9} + f_{2,9} <= 0
 c88:  - 5 x_{9,2} + f_{9,2} <= 0
 c89:  - 5 x_{3,6} + f_{3,6} <= 0
 c90:  - 5 x_{6,3} + f_{6,3} <= 0
 c91:  - 5 x_{3,7} + f_{3,7} <= 0
 c92:  - 5 x_{7,3} + f_{7,3} <= 0
 c93:  - 5 x_{4,5} + f_{4,5} <= 0
 c94:  - 5 x_{5,4} + f_{5,4} <= 0
 c95:  - 5 x_{4,7} + f_{4,7} <= 0
 c96:  - 5 x_{7,4} + f_{7,4} <= 0
 c97:  - 5 x_{4,9} + f_{4,9} <= 0
 c98:  - 5 x_{9,4} + f_{9,4} <= 0
 c99:  - 5 x_{5,9} + f_{5,9} <= 0
 c100: - 5 x_{9,5} + f_{9,5} <= 0
 c101: - 5 x_{5,10} + f_{5,10} <= 0
 c102: - 5 x_{10,5} + f_{10,5} <= 0
 c103: - 5 x_{6,7} + f_{6,7} <= 0
 c104: - 5 x_{7,6} + f_{7,6} <= 0
 c105: - 5 x_{6,8} + f_{6,8} <= 0
 c106: - 5 x_{8,6} + f_{8,6} <= 0
 c107: - 5 x_{6,9} + f_{6,9} <= 0
 c108: - 5 x_{9,6} + f_{9,6} <= 0
 c109: - 5 x_{6,10} + f_{6,10} <= 0
 c110: - 5 x_{10,6} + f_{10,6} <= 0
 c111: - 5 x_{7,8} + f_{7,8} <= 0
 c112: - 5 x_{8,7} + f_{8,7} <= 0
 c113: - 5 x_{7,9} + f_{7,9} <= 0
 c114: - 5 x_{9,7} + f_{9,7} <= 0
 c115: - 5 x_{7,10} + f_{7,10} <= 0
 c116: - 5 x_{10,7} + f_{10,7} <= 0
 c117: - 5 x_{8,9} + f_{8,9} <= 0
 c118: - 5 x_{9,8} + f_{9,8} <= 0
 c119: - 5 x_{9,10} + f_{9,10} <= 0
 c120: - 5 x_{10,9} + f_{10,9} <= 0
 c121: y0  = 1
Bounds
 0 <= x_{0,1} <= 1
 0 <= x_{0,2} <= 1
 0 <= x_{0,3} <= 1
 0 <= x_{0,4} <= 1
 0 <= x_{0,5} <= 1
 0 <= x_{0,6} <= 1
 0 <= x_{0,7} <= 1
 0 <= x_{0,8} <= 1
 0 <= x_{0,9} <= 1
 0 <= x_{0,10} <= 1
 0 <= x_{1,2} <= 1
 0 <= x_{1,3} <= 1
 0 <= x_{1,4} <= 1
 0 <= x_{1,8} <= 1
 0 <= x_{2,4} <= 1
 0 <= x_{2,9} <= 1
 0 <= x_{3,6} <= 1
 0 <= x_{3,7} <= 1
 0 <= x_{4,5} <= 1
 0 <= x_{4,7} <= 1
 0 <= x_{4,9} <= 1
 0 <= x_{5,9} <= 1
 0 <= x_{5,10} <= 1
 0 <= x_{6,7} <= 1
 0 <= x_{6,8} <= 1
 0 <= x_{6,9} <= 1
 0 <= x_{6,10} <= 1
 0 <= x_{7,8} <= 1
 0 <= x_{7,9} <= 1
 0 <= x_{7,10} <= 1
 0 <= x_{8,9} <= 1
 0 <= x_{9,10} <= 1
 0 <= x_{1,0} <= 1
 0 <= x_{2,0} <= 1
 0 <= x_{3,0} <= 1
 0 <= x_{4,0} <= 1
 0 <= x_{5,0} <= 1
 0 <= x_{6,0} <= 1
 0 <= x_{7,0} <= 1
 0 <= x_{8,0} <= 1
 0 <= x_{9,0} <= 1
 0 <= x_{10,0} <= 1
 0 <= x_{2,1} <= 1
 0 <= x_{3,1} <= 1
 0 <= x_{4,1} <= 1
 0 <= x_{8,1} <= 1
 0 <= x_{4,2} <= 1
 0 <= x_{9,2} <= 1
 0 <= x_{6,3} <= 1
 0 <= x_{7,3} <= 1
 0 <= x_{5,4} <= 1
 0 <= x_{7,4} <= 1
 0 <= x_{9,4} <= 1
 0 <= x_{9,5} <= 1
 0 <= x_{10,5} <= 1
 0 <= x_{7,6} <= 1
 0 <= x_{8,6} <= 1
 0 <= x_{9,6} <= 1
 0 <= x_{10,6} <= 1
 0 <= x_{8,7} <= 1
 0 <= x_{9,7} <= 1
 0 <= x_{10,7} <= 1
 0 <= x_{9,8} <= 1
 0 <= x_{10,9} <= 1
 0 <= y0 <= 1
 0 <= y1 <= 1
 0 <= y2 <= 1
 0 <= y3 <= 1
 0 <= y4 <= 1
 0 <= y5 <= 1
 0 <= y6 <= 1
 0 <= y7 <= 1
 0 <= y8 <= 1
 0 <= y9 <= 1
 0 <= y10 <= 1
 0 <= f_{0,1} <= 5
 0 <= f_{0,2} <= 5
 0 <= f_{0,3} <= 5
 0 <= f_{0,4} <= 5
 0 <= f_{0,5} <= 5
 0 <= f_{0,6} <= 5
 0 <= f_{0,7} <= 5
 0 <= f_{0,8} <= 5
 0 <= f_{0,9} <= 5
 0 <= f_{0,10} <= 5
 0 <= f_{1,0} <= 5
 0 <= f_{2,1} <= 5
 0 <= f_{1,2} <= 5
 0 <= f_{3,1} <= 5
 0 <= f_{1,3} <= 5
 0 <= f_{4,1} <= 5
 0 <= f_{1,4} <= 5
 0 <= f_{8,1} <= 5
 0 <= f_{1,8} <= 5
 0 <= f_{2,0} <= 5
 0 <= f_{4,2} <= 5
 0 <= f_{2,4} <= 5
 0 <= f_{9,2} <= 5
 0 <= f_{2,9} <= 5
 0 <= f_{3,0} <= 5
 0 <= f_{6,3} <= 5
 0 <= f_{3,6} <= 5
 0 <= f_{7,3} <= 5
 0 <= f_{3,7} <= 5
 0 <= f_{4,0} <= 5
 0 <= f_{5,4} <= 5
 0 <= f_{4,5} <= 5
 0 <= f_{7,4} <= 5
 0 <= f_{4,7} <= 5
 0 <= f_{9,4} <= 5
 0 <= f_{4,9} <= 5
 0 <= f_{5,0} <= 5
 0 <= f_{9,5} <= 5
 0 <= f_{5,9} <= 5
 0 <= f_{10,5} <= 5
 0 <= f_{5,10} <= 5
 0 <= f_{6,0} <= 5
 0 <= f_{7,6} <= 5
 0 <= f_{6,7} <= 5
 0 <= f_{8,6} <= 5
 0 <= f_{6,8} <= 5
 0 <= f_{9,6} <= 5
 0 <= f_{6,9} <= 5
 0 <= f_{10,6} <= 5
 0 <= f_{6,10} <= 5
 0 <= f_{7,0} <= 5
 0 <= f_{8,7} <= 5
 0 <= f_{7,8} <= 5
 0 <= f_{9,7} <= 5
 0 <= f_{7,9} <= 5
 0 <= f_{10,7} <= 5
 0 <= f_{7,10} <= 5
 0 <= f_{8,0} <= 5
 0 <= f_{9,8} <= 5
 0 <= f_{8,9} <= 5
 0 <= f_{9,0} <= 5
 0 <= f_{10,9} <= 5
 0 <= f_{9,10} <= 5
 0 <= f_{10,0} <= 5
Binaries
 x_{0,1}  x_{0,2}  x_{0,3}  x_{0,4}  x_{0,5}  x_{0,6}  x_{0,7}  x_{0,8} 
 x_{0,9}  x_{0,10}  x_{1,2}  x_{1,3}  x_{1,4}  x_{1,8}  x_{2,4}  x_{2,9} 
 x_{3,6}  x_{3,7}  x_{4,5}  x_{4,7}  x_{4,9}  x_{5,9}  x_{5,10}  x_{6,7} 
 x_{6,8}  x_{6,9}  x_{6,10}  x_{7,8}  x_{7,9}  x_{7,10}  x_{8,9}  x_{9,10} 
 x_{1,0}  x_{2,0}  x_{3,0}  x_{4,0}  x_{5,0}  x_{6,0}  x_{7,0}  x_{8,0} 
 x_{9,0}  x_{10,0}  x_{2,1}  x_{3,1}  x_{4,1}  x_{8,1}  x_{4,2}  x_{9,2} 
 x_{6,3}  x_{7,3}  x_{5,4}  x_{7,4}  x_{9,4}  x_{9,5}  x_{10,5}  x_{7,6} 
 x_{8,6}  x_{9,6}  x_{10,6}  x_{8,7}  x_{9,7}  x_{10,7}  x_{9,8}  x_{10,9}  y0 
 y1  y2  y3  y4  y5  y6  y7  y8  y9  y10 
End
